(set-logic QF_S)
(declare-fun var0 () String)
(assert (str.in.re var0 (re.++ (re.* (re.+ (str.to.re "0"))) (re.++ (re.union (re.+ (str.to.re "11")) (re.+ (str.to.re "222"))) (re.++ (re.* (re.+ (str.to.re "33"))) (re.++ (re.* (re.union (str.to.re "4") (str.to.re "555"))) (re.++ (re.+ (re.union (str.to.re "6") (str.to.re "77"))) (re.++ (re.union (re.union (str.to.re "8") (str.to.re "999")) (re.union (str.to.re "aaa") (str.to.re "b"))) (re.++ (re.* (re.+ (str.to.re "cc"))) (re.++ (re.union (re.union (str.to.re "ddd") (str.to.re "eee")) (re.union (str.to.re "fff") (str.to.re "g"))) (re.++ (re.* (re.+ (str.to.re "h"))) (re.++ (re.union (re.union (str.to.re "i") (str.to.re "j")) (re.union (str.to.re "kk") (str.to.re "lll"))) (re.++ (re.* (re.union (str.to.re "mmm") (str.to.re "n"))) (re.++ (re.+ (re.* (str.to.re "oo"))) (re.++ (re.* (re.* (str.to.re "p"))) (re.++ (re.* (re.* (str.to.re "q"))) (re.++ (re.+ (re.union (str.to.re "rrr") (str.to.re "s"))) (re.++ (re.union (re.* (str.to.re "ttt")) (re.* (str.to.re "uuu"))) (re.++ (re.union (re.* (str.to.re "vv")) (re.* (str.to.re "ww"))) (re.++ (re.* (re.+ (str.to.re "xx"))) (re.++ (re.union (re.+ (str.to.re "yy")) (re.+ (str.to.re "zz"))) (re.++ (re.union (re.* (str.to.re "AA")) (re.* (str.to.re "BB"))) (re.++ (re.union (re.* (str.to.re "CC")) (re.* (str.to.re "DDD"))) (re.++ (re.+ (re.union (str.to.re "EEE") (str.to.re "FF"))) (re.++ (re.* (re.* (str.to.re "GGG"))) (re.++ (re.* (re.union (str.to.re "HHH") (str.to.re "III"))) (re.++ (re.* (re.+ (str.to.re "JJJ"))) (re.++ (re.* (re.+ (str.to.re "K"))) (re.++ (re.* (re.* (str.to.re "LL"))) (re.++ (re.* (re.union (str.to.re "MMM") (str.to.re "N"))) (re.++ (re.union (re.* (str.to.re "OOO")) (re.* (str.to.re "PP"))) (re.++ (re.union (re.* (str.to.re "QQQ")) (re.* (str.to.re "RRR"))) (re.++ (re.+ (re.+ (str.to.re "S"))) (re.++ (re.+ (re.+ (str.to.re "TT"))) (re.++ (re.union (re.* (str.to.re "UUU")) (re.* (str.to.re "V"))) (re.++ (re.union (re.union (str.to.re "WWW") (str.to.re "XX")) (re.union (str.to.re "YY") (str.to.re "ZZ"))) (re.++ (re.+ (re.* (str.to.re "!"))) (re.++ (re.union (re.* (str.to.re """""""")) (re.* (str.to.re "##"))) (re.++ (re.* (re.+ (str.to.re "$$"))) (re.++ (re.+ (re.union (str.to.re "%%") (str.to.re "&"))) (re.++ (re.+ (re.* (str.to.re "'"))) (re.++ (re.union (re.+ (str.to.re "((")) (re.+ (str.to.re ")))"))) (re.++ (re.* (re.* (str.to.re "*"))) (re.++ (re.* (re.+ (str.to.re "+++"))) (re.++ (re.union (re.+ (str.to.re ",,,")) (re.+ (str.to.re "--"))) (re.++ (re.union (re.union (str.to.re "..") (str.to.re "/")) (re.union (str.to.re "::") (str.to.re ";;;"))) (re.++ (re.union (re.+ (str.to.re "<<")) (re.+ (str.to.re "==="))) (re.++ (re.+ (re.union (str.to.re ">") (str.to.re "??"))) (re.++ (re.union (re.union (str.to.re "@@") (str.to.re "[[[")) (re.union (str.to.re "\\\\") (str.to.re "]"))) (re.++ (re.+ (re.+ (str.to.re "^"))) (re.++ (re.union (re.+ (str.to.re "_")) (re.+ (str.to.re "``"))) (re.++ (re.* (re.+ (str.to.re "{{{"))) (re.++ (re.* (re.* (str.to.re "|||"))) (re.++ (re.+ (re.+ (str.to.re "}"))) (re.++ (re.* (re.* (str.to.re "~"))) (re.++ (re.union (re.* (str.to.re "00")) (re.* (str.to.re "11"))) (re.++ (re.union (re.union (str.to.re "222") (str.to.re "333")) (re.union (str.to.re "44") (str.to.re "555"))) (re.++ (re.union (re.union (str.to.re "66") (str.to.re "777")) (re.union (str.to.re "88") (str.to.re "99"))) (re.++ (re.* (re.* (str.to.re "aa"))) (re.++ (re.* (re.* (str.to.re "bb"))) (re.++ (re.+ (re.+ (str.to.re "ccc"))) (re.++ (re.* (re.* (str.to.re "ddd"))) (re.++ (re.+ (re.union (str.to.re "ee") (str.to.re "fff"))) (re.++ (re.* (re.union (str.to.re "gg") (str.to.re "h"))) (re.++ (re.* (re.* (str.to.re "i"))) (re.++ (re.* (re.union (str.to.re "jj") (str.to.re "kkk"))) (re.++ (re.union (re.+ (str.to.re "l")) (re.+ (str.to.re "mmm"))) (re.++ (re.union (re.* (str.to.re "nnn")) (re.* (str.to.re "oo"))) (re.++ (re.* (re.+ (str.to.re "ppp"))) (re.++ (re.union (re.union (str.to.re "qq") (str.to.re "rrr")) (re.union (str.to.re "ss") (str.to.re "ttt"))) (re.++ (re.union (re.* (str.to.re "u")) (re.* (str.to.re "v"))) (re.++ (re.union (re.union (str.to.re "ww") (str.to.re "xxx")) (re.union (str.to.re "y") (str.to.re "z"))) (re.++ (re.* (re.union (str.to.re "AAA") (str.to.re "B"))) (re.++ (re.union (re.union (str.to.re "C") (str.to.re "DDD")) (re.union (str.to.re "EEE") (str.to.re "FFF"))) (re.++ (re.* (re.union (str.to.re "GGG") (str.to.re "H"))) (re.++ (re.+ (re.+ (str.to.re "II"))) (re.++ (re.* (re.+ (str.to.re "J"))) (re.++ (re.union (re.+ (str.to.re "KK")) (re.+ (str.to.re "LL"))) (re.++ (re.* (re.union (str.to.re "MMM") (str.to.re "NNN"))) (re.++ (re.* (re.+ (str.to.re "O"))) (re.++ (re.* (re.union (str.to.re "PPP") (str.to.re "QQ"))) (re.++ (re.+ (re.union (str.to.re "RRR") (str.to.re "S"))) (re.++ (re.+ (re.* (str.to.re "TTT"))) (re.++ (re.union (re.* (str.to.re "UU")) (re.* (str.to.re "VVV"))) (re.++ (re.* (re.* (str.to.re "WW"))) (re.++ (re.union (re.* (str.to.re "X")) (re.* (str.to.re "YYY"))) (re.++ (re.+ (re.union (str.to.re "ZZ") (str.to.re "!"))) (re.++ (re.* (re.+ (str.to.re """"))) (re.++ (re.* (re.union (str.to.re "##") (str.to.re "$$"))) (re.++ (re.union (re.+ (str.to.re "%%")) (re.+ (str.to.re "&&&"))) (re.++ (re.+ (re.+ (str.to.re "'''"))) (re.++ (re.* (re.* (str.to.re "((("))) (re.++ (re.union (re.+ (str.to.re "))")) (re.+ (str.to.re "**"))) (re.++ (re.union (re.+ (str.to.re "+++")) (re.+ (str.to.re ",,"))) (re.++ (re.+ (re.* (str.to.re "-"))) (re.++ (re.union (re.union (str.to.re ".") (str.to.re "///")) (re.union (str.to.re ":") (str.to.re ";;"))) (re.++ (re.union (re.* (str.to.re "<<")) (re.* (str.to.re "=="))) (re.++ (re.* (re.* (str.to.re ">>>"))) (re.++ (re.+ (re.+ (str.to.re "?"))) (re.++ (re.union (re.+ (str.to.re "@@")) (re.+ (str.to.re "[["))) (re.++ (re.* (re.+ (str.to.re "\\"))) (re.++ (re.union (re.union (str.to.re "]]]") (str.to.re "^^^")) (re.union (str.to.re "___") (str.to.re "`"))) (re.++ (re.+ (re.* (str.to.re "{{"))) (re.++ (re.+ (re.* (str.to.re "|"))) (re.++ (re.* (re.union (str.to.re "}}}") (str.to.re "~~"))) (re.++ (re.+ (re.union (str.to.re "00") (str.to.re "1"))) (re.++ (re.union (re.+ (str.to.re "22")) (re.+ (str.to.re "333"))) (re.++ (re.+ (re.+ (str.to.re "444"))) (re.++ (re.union (re.* (str.to.re "55")) (re.* (str.to.re "6"))) (re.++ (re.union (re.+ (str.to.re "7")) (re.+ (str.to.re "88"))) (re.++ (re.* (re.* (str.to.re "999"))) (re.++ (re.* (re.* (str.to.re "a"))) (re.++ (re.union (re.+ (str.to.re "bb")) (re.+ (str.to.re "cc"))) (re.++ (re.union (re.union (str.to.re "dd") (str.to.re "e")) (re.union (str.to.re "fff") (str.to.re "gg"))) (re.++ (re.+ (re.+ (str.to.re "hh"))) (re.++ (re.+ (re.union (str.to.re "iii") (str.to.re "j"))) (re.++ (re.* (re.union (str.to.re "kk") (str.to.re "lll"))) (re.++ (re.+ (re.* (str.to.re "mm"))) (re.++ (re.+ (re.union (str.to.re "nnn") (str.to.re "ooo"))) (re.++ (re.union (re.union (str.to.re "ppp") (str.to.re "q")) (re.union (str.to.re "rrr") (str.to.re "ss"))) (re.++ (re.+ (re.+ (str.to.re "tt"))) (re.++ (re.union (re.+ (str.to.re "uuu")) (re.+ (str.to.re "v"))) (re.++ (re.+ (re.* (str.to.re "www"))) (re.++ (re.union (re.+ (str.to.re "xx")) (re.+ (str.to.re "y"))) (re.++ (re.union (re.+ (str.to.re "zzz")) (re.+ (str.to.re "A"))) (re.++ (re.+ (re.union (str.to.re "BBB") (str.to.re "C"))) (re.++ (re.* (re.* (str.to.re "DDD"))) (re.++ (re.* (re.+ (str.to.re "E"))) (re.++ (re.* (re.union (str.to.re "F") (str.to.re "G"))) (re.++ (re.* (re.union (str.to.re "HHH") (str.to.re "I"))) (re.++ (re.+ (re.union (str.to.re "J") (str.to.re "KKK"))) (re.++ (re.union (re.+ (str.to.re "LLL")) (re.+ (str.to.re "MMM"))) (re.++ (re.+ (re.* (str.to.re "NN"))) (re.++ (re.+ (re.union (str.to.re "O") (str.to.re "P"))) (re.++ (re.union (re.union (str.to.re "Q") (str.to.re "RRR")) (re.union (str.to.re "SSS") (str.to.re "TT"))) (re.++ (re.+ (re.+ (str.to.re "UUU"))) (re.++ (re.+ (re.+ (str.to.re "V"))) (re.++ (re.+ (re.* (str.to.re "WWW"))) (re.++ (re.* (re.* (str.to.re "X"))) (re.++ (re.* (re.union (str.to.re "YY") (str.to.re "ZZ"))) (re.++ (re.* (re.union (str.to.re "!!") (str.to.re """"))) (re.++ (re.+ (re.union (str.to.re "###") (str.to.re "$"))) (re.++ (re.union (re.* (str.to.re "%%")) (re.* (str.to.re "&&&"))) (re.++ (re.+ (re.+ (str.to.re "''"))) (re.++ (re.union (re.+ (str.to.re "(((")) (re.+ (str.to.re "))"))) (re.++ (re.* (re.+ (str.to.re "***"))) (re.++ (re.* (re.* (str.to.re "++"))) (re.++ (re.union (re.* (str.to.re ",,")) (re.* (str.to.re "--"))) (re.++ (re.union (re.+ (str.to.re ".")) (re.+ (str.to.re "///"))) (re.++ (re.* (re.+ (str.to.re ":"))) (re.++ (re.+ (re.* (str.to.re ";"))) (re.++ (re.union (re.+ (str.to.re "<<<")) (re.+ (str.to.re "="))) (re.++ (re.* (re.union (str.to.re ">>") (str.to.re "??"))) (re.++ (re.* (re.union (str.to.re "@@@") (str.to.re "[[["))) (re.++ (re.union (re.* (str.to.re "\\\\\\")) (re.* (str.to.re "]"))) (re.++ (re.+ (re.union (str.to.re "^") (str.to.re "___"))) (re.++ (re.* (re.* (str.to.re "``"))) (re.++ (re.union (re.union (str.to.re "{{{") (str.to.re "|||")) (re.union (str.to.re "}") (str.to.re "~~~"))) (re.++ (re.+ (re.+ (str.to.re "0"))) (re.++ (re.union (re.+ (str.to.re "1")) (re.+ (str.to.re "22"))) (re.++ (re.* (re.* (str.to.re "33"))) (re.++ (re.union (re.union (str.to.re "44") (str.to.re "55")) (re.union (str.to.re "66") (str.to.re "77"))) (re.++ (re.* (re.union (str.to.re "888") (str.to.re "99"))) (re.++ (re.* (re.+ (str.to.re "aaa"))) (re.++ (re.union (re.union (str.to.re "b") (str.to.re "c")) (re.union (str.to.re "ddd") (str.to.re "e"))) (re.++ (re.* (re.union (str.to.re "f") (str.to.re "g"))) (re.++ (re.* (re.union (str.to.re "h") (str.to.re "ii"))) (re.++ (re.union (re.* (str.to.re "jj")) (re.* (str.to.re "kk"))) (re.++ (re.* (re.* (str.to.re "l"))) (re.++ (re.* (re.union (str.to.re "mmm") (str.to.re "nn"))) (re.union (re.union (str.to.re "ooo") (str.to.re "ppp")) (re.union (str.to.re "qq") (str.to.re "r")))))))))))))))))))))))))))))))))))))))))))))))))))))))))))))))))))))))))))))))))))))))))))))))))))))))))))))))))))))))))))))))))))))))))))))))))))))))))))))))))))))))))))))
(check-sat)